data/evidence/ss_sat/proofs/scaled_cadical_drat/horn_chain_16.cadical.drat
2 0
d -1 2 0
3 0
d -2 3 0
4 0
d -3 4 0
5 0
d -4 5 0
6 0
d -5 6 0
7 0
d -6 7 0
8 0
d -7 8 0
9 0
d -8 9 0
10 0
d -9 10 0
11 0
d -10 11 0
12 0
d -11 12 0
13 0
d -12 13 0
14 0
d -13 14 0
15 0
d -14 15 0
16 0
d -15 16 0
0
d -16 0
