data/evidence/ss_sat/proofs/scaled_cadical_lrat/horn_chain_16.cadical.lrat
18 2 0 1 2 0
18 d 2 0
19 3 0 18 3 0
19 d 3 0
20 4 0 19 4 0
20 d 4 0
21 5 0 20 5 0
21 d 5 0
22 6 0 21 6 0
22 d 6 0
23 7 0 22 7 0
23 d 7 0
24 8 0 23 8 0
24 d 8 0
25 9 0 24 9 0
25 d 9 0
26 10 0 25 10 0
26 d 10 0
27 11 0 26 11 0
27 d 11 0
28 12 0 27 12 0
28 d 12 0
29 13 0 28 13 0
29 d 13 0
30 14 0 29 14 0
30 d 14 0
31 15 0 30 15 0
31 d 15 0
32 16 0 31 16 0
32 d 16 0
33 0 32 17 0
